(set-info :smt-lib-version 2.6)
(set-logic QF_UFLRA)
(set-info :source |
MathSat group

|)
(set-info :category "random")
(set-info :status unsat)
(declare-fun x0 () Real)
(declare-fun x1 () Real)
(declare-fun x2 () Real)
(declare-fun x3 () Real)
(declare-fun x4 () Real)
(declare-fun x5 () Real)
(declare-fun x6 () Real)
(declare-fun x7 () Real)
(declare-fun x8 () Real)
(declare-fun x9 () Real)
(declare-fun x10 () Real)
(declare-fun x11 () Real)
(declare-fun x12 () Real)
(declare-fun x13 () Real)
(declare-fun x14 () Real)
(declare-fun x15 () Real)
(declare-fun x16 () Real)
(declare-fun x17 () Real)
(declare-fun x18 () Real)
(declare-fun x19 () Real)
(declare-fun x20 () Real)
(declare-fun x21 () Real)
(declare-fun x22 () Real)
(declare-fun x23 () Real)
(declare-fun x24 () Real)
(declare-fun x25 () Real)
(declare-fun x26 () Real)
(declare-fun x27 () Real)
(declare-fun x28 () Real)
(declare-fun x29 () Real)
(declare-fun f0_1 (Real) Real)
(declare-fun f0_2 (Real Real) Real)
(declare-fun f0_3 (Real Real Real) Real)
(declare-fun f0_4 (Real Real Real Real) Real)
(declare-fun P0 () Bool)
(declare-fun P1 () Bool)
(declare-fun P2 () Bool)
(declare-fun P3 () Bool)
(declare-fun P4 () Bool)
(declare-fun P5 () Bool)
(declare-fun P6 () Bool)
(declare-fun P7 () Bool)
(declare-fun P8 () Bool)
(declare-fun P9 () Bool)
(declare-fun P10 () Bool)
(declare-fun P11 () Bool)
(declare-fun P12 () Bool)
(declare-fun P13 () Bool)
(declare-fun P14 () Bool)
(declare-fun P15 () Bool)
(declare-fun P16 () Bool)
(declare-fun P17 () Bool)
(declare-fun P18 () Bool)
(declare-fun P19 () Bool)
(declare-fun P20 () Bool)
(declare-fun P21 () Bool)
(declare-fun P22 () Bool)
(declare-fun P23 () Bool)
(declare-fun P24 () Bool)
(declare-fun P25 () Bool)
(declare-fun P26 () Bool)
(declare-fun P27 () Bool)
(declare-fun P28 () Bool)
(declare-fun P29 () Bool)
(assert (let ((?v_81 (distinct (- (- (* 42 x0) (* 19 x18)) (* 34 x7)) 23)) (?v_9 (< (- (+ (* 35 x10) (* 15 x5)) (* 20 x7)) 41)) (?v_22 (* 35 x13))) (let ((?v_145 (= (+ (- (* 16 x21) ?v_22) (* 36 x27)) 2)) (?v_34 (<= (- (+ (* 7 x7) (* 14 x8)) (* 20 x29)) 6)) (?v_153 (< (- (- (* 5 x10) (* 14 x11)) (* 25 x22)) 32)) (?v_97 (< (+ (- (* 38 x2) (* 19 x23)) (* 25 x19)) 33)) (?v_23 (f0_1 x2)) (?v_53 (f0_1 x20))) (let ((?v_36 (distinct ?v_23 ?v_53)) (?v_52 (distinct (f0_2 x7 x10) x29)) (?v_104 (distinct (f0_2 x22 x11) (f0_2 x4 x8))) (?v_148 (= (f0_2 x28 x27) (f0_2 x16 x20))) (?v_91 (distinct (f0_2 x28 x19) x14)) (?v_122 (= x3 (f0_1 x8))) (?v_21 (f0_1 x19))) (let ((?v_128 (distinct x23 ?v_21)) (?v_102 (distinct (f0_2 x29 x5) (f0_1 x21))) (?v_13 (f0_1 x3))) (let ((?v_67 (= (f0_2 x9 x6) ?v_13)) (?v_152 (distinct (f0_1 x27) (f0_2 x28 x17))) (?v_4 (f0_1 x9))) (let ((?v_45 (= ?v_4 ?v_13)) (?v_44 (distinct (f0_2 x14 x23) (f0_2 x8 x28))) (?v_125 (distinct (f0_2 x10 x24) ?v_21)) (?v_73 (distinct (f0_2 x2 x14) ?v_13)) (?v_66 (= (f0_2 x2 x17) x5)) (?v_103 (= (f0_2 x21 x17) ?v_4)) (?v_109 (= (f0_2 x20 x6) (f0_2 x16 x11))) (?v_62 (= x25 x21)) (?v_55 (= ?v_13 (f0_2 x19 x13))) (?v_99 (= x14 (f0_1 x24))) (?v_69 (distinct x13 ?v_4)) (?v_84 (distinct (f0_1 x5) x10)) (?v_90 (distinct (f0_2 x6 x17) x10)) (?v_37 (distinct x21 x8)) (?v_120 (= (f0_2 x1 x3) ?v_21)) (?v_1 (= x2 ?v_23)) (?v_3 (distinct x29 (f0_2 x1 x22))) (?v_35 (f0_2 x0 x9))) (let ((?v_87 (= (f0_2 x16 x29) ?v_35)) (?v_63 (= (f0_2 x9 x5) ?v_53)) (?v_14 (= ?v_35 x20)) (?v_0 (not P15)) (?v_124 (not ?v_1)) (?v_134 (not ?v_122)) (?v_33 (not P13)) (?v_92 (not P23)) (?v_83 (not P1)) (?v_57 (not ?v_153)) (?v_68 (not P8)) (?v_26 (not P7)) (?v_72 (not ?v_103)) (?v_31 (not ?v_66)) (?v_20 (not P5))) (let ((?v_10 (not ?v_14)) (?v_74 (not ?v_128)) (?v_129 (not ?v_3)) (?v_116 (not P10)) (?v_39 (not P17)) (?v_46 (not P3)) (?v_80 (not ?v_9)) (?v_130 (not ?v_67)) (?v_29 (not ?v_55)) (?v_19 (not P24)) (?v_71 (not ?v_34)) (?v_98 (not P6)) (?v_40 (not ?v_145)) (?v_78 (not ?v_148)) (?v_25 (not ?v_125)) (?v_126 (not P4)) (?v_32 (not P22)) (?v_70 (not ?v_84)) (?v_50 (not P9)) (?v_54 (not ?v_36)) (?v_47 (not ?v_104)) (?v_112 (not P29)) (?v_106 (not P26)) (?v_114 (not ?v_102)) (?v_58 (not ?v_45)) (?v_108 (not P19)) (?v_142 (not ?v_52)) (?v_89 (not ?v_63)) (?v_85 (not ?v_73)) (?v_77 (not P12)) (?v_140 (not ?v_62)) (?v_146 (not P2))) (let ((?v_158 (or ?v_74 ?v_3)) (?v_82 (not ?v_99)) (?v_105 (not P21)) (?v_101 (not ?v_81)) (?v_151 (not ?v_87)) (?v_95 (not ?v_91)) (?v_118 (not P14)) (?v_100 (not ?v_37)) (?v_143 (not P18)) (?v_127 (not P27)) (?v_113 (not P0)) (?v_150 (not ?v_109)) (?v_115 (not P28)) (?v_119 (not ?v_152)) (?v_138 (not P25)) (?v_136 (not ?v_69)) (?v_147 (not ?v_120)) (?v_131 (not P20)) (?v_144 (not P11)) (?v_137 (not ?v_90)) (?v_156 (not P16)) (?v_157 (not ?v_44)) (?v_155 (not ?v_97)) (?v_159 (or P18 ?v_68)) (?v_141 (<= (+ (* 19 x15) (* 42 x26) (* 21 x2)) 6))) (let ((?v_16 (not ?v_141))) (let ((?v_154 (or ?v_16 ?v_0)) (?v_5 (< (- (* 14 x10) (* 8 x3)) 7))) (let ((?v_28 (not ?v_5)) (?v_15 (= (- 0 (* 6 x22)) 30))) (let ((?v_110 (not ?v_15)) (?v_59 (= (+ (* 10 x20) x25 ?v_22) 27))) (let ((?v_51 (not ?v_59)) (?v_24 (<= (- (- x0 (* 7 x5)) (* 27 x23)) 0))) (let ((?v_41 (not ?v_24)) (?v_2 (<= (+ (* (- 41) x11) (* 21 x25) (* 7 x23)) 6))) (let ((?v_64 (not ?v_2)) (?v_8 (distinct (- (- (* (- 32) x16) (* 9 x29)) (* 17 x6)) 11)) (?v_88 (<= (- (- (* (- 28) x24) (* 22 x22)) 0) 27)) (?v_60 (< (- (- (* (- 34) x23) (* 12 x19)) (* 40 x11)) 35))) (let ((?v_139 (not ?v_60)) (?v_42 (distinct (- (- (* 10 x26) (* 35 x4)) (* 5 x23)) (- 36))) (?v_38 (< (+ (* (- 9) x17) (* 37 x11) (* 21 x15)) 38))) (let ((?v_27 (not ?v_38)) (?v_123 (<= (+ (- (* (- 12) x19) (* 39 x24)) (* 7 x12)) (- 17)))) (let ((?v_48 (not ?v_123)) (?v_18 (= (- (+ (* 3 x20) (* 29 x16)) (* 27 x6)) (- 29))) (?v_6 (<= (- (+ (* 42 x6) (* 17 x13)) (* 9 x26)) (- 3)))) (let ((?v_7 (not ?v_6)) (?v_30 (<= (- (- (* (- 37) x21) (* 38 x21)) (* 3 x29)) 0))) (let ((?v_111 (not ?v_30)) (?v_149 (<= (+ (* (- 19) x4) (* 39 x29) (* 19 x27)) 20))) (let ((?v_17 (not ?v_149)) (?v_12 (= (- (- (* (- 14) x7) (* 22 x15)) (* 42 x16)) 31)) (?v_11 (= (- (+ (* (- 12) x21) (* 18 x17)) (* 38 x19)) (- 28))) (?v_56 (not ?v_8)) (?v_75 (< (+ (- (* (- 8) x24) (* 5 x25)) (* 23 x2)) (- 10)))) (let ((?v_61 (not ?v_11)) (?v_76 (distinct (+ (* (- 24) x20) (* 22 x6) x7) (- 28))) (?v_43 (<= (+ (- (* (- 24) x11) (* 39 x4)) (* 23 x27)) 25))) (let ((?v_79 (not ?v_43)) (?v_93 (not ?v_18)) (?v_107 (<= (- (+ (* (- 28) x17) (* 27 x17)) (* 23 x15)) (- 9))) (?v_49 (not ?v_12)) (?v_96 (< (- (- (* (- 14) x17) (* 34 x6)) (* 31 x22)) (- 30))) (?v_94 (<= (+ (* (- 34) x22) (* 21 x16) (* 22 x13)) 35)) (?v_65 (not ?v_42)) (?v_86 (not ?v_75)) (?v_133 (not ?v_76)) (?v_132 (not ?v_88))) (let ((?v_121 (not ?v_96)) (?v_135 (not ?v_107)) (?v_117 (not ?v_94))) (and (and (and (and (and (and (and (and (and (and (and (and (and (and (and (and (and (and (and (and (and (and (and (and (and (and (and (and (and (and (and (and (and (and (and (and (and (and (and (and (and (and (and (and (and (and (and (and (and (and (and (and (and (and (and (and (and (and (and (and (and (and (and (and (and (and (and (and (and (and (and (and (and (and (and (and (and (and (and (and (and (and (and (and (and (and (and (and (and (and (and (and (and (and (and (and (and (and (and (and (and (and (and (and (and (and (and (and (and (and (and (and (and (and (and (and (and (and (and (and (and (and (and (and (and (and (and (and (and (and (and (and (and (and (and (and (and (and (and (and (and (and (and (and (and (and (and (and (and (and (and (and (and (and (and (and (and (and (and (and (and (and (and (and (and (and (and (and (and (and (and (and (and (and (and (and (and (and (and (and (and (and (and (and (and (and (and (and (and (and (and (and (and (and (and (and (and (and (and (and (and (and (and (and (and (and (and (and (and (and (and (and (and (and (and (and (and (and (and (and (and (and (and (and (and (and (and (and (and (and (and (and (and (and (and (and (and (and (and (and (and (and (and (and (and (and (and (and (and (and (and (and (and (and (and (and (and (and (and (and (and (and (and (and (and (and (and (and (and (and (and (and (and (and (and (and (and (and (and (and (and (and (and (and (and (and (and (and (and (and (and (and (and (and (and (and (and (and (and (and (and (and (and (and (and (and (and (and (and (and (and (and (and (and (and (and (and (and (and (and (and (and (and (and (and (and (and (and (and (and (and (and (and (and (and (and (and (and (and (and (and (and (and (and (and (and (and (and (and (and (and (and (and (and (and (and (and (and (and (and (and (and (and (and (and (and (and (and (and (and (and (and (and (and (and (and (and (and (and (and (and (and (and (and (and (and (and (and (and (and (and (and (and (and (and (and (and (and (and (and (and (and (and (and (and (and (and (and (and (and (and (and (and (and (and (and (and (and (and (and (and (and (and (and (and (and (and (and (and (and (and (and (and (and (and (and (and (and (and (and (and (and (and (and (and (and (and (and (and (or ?v_154 ?v_124) (or (or ?v_134 ?v_33) ?v_28)) (or (or P5 ?v_0) ?v_15)) (or (or ?v_64 ?v_9) P17)) (or (or ?v_92 ?v_8) P17)) (or (or ?v_1 ?v_83) ?v_37)) (or (or ?v_57 ?v_88) P23)) (or (or ?v_139 ?v_68) P12)) (or (or ?v_62 ?v_26) ?v_72)) (or (or P5 ?v_3) ?v_31)) (or (or ?v_20 ?v_42) ?v_10)) (or (or ?v_74 ?v_27) P27)) (or (or ?v_48 ?v_44) P17)) (or (or ?v_2 ?v_18) ?v_129)) (or (or ?v_7 ?v_111) ?v_17)) (or (or ?v_12 ?v_45) ?v_5)) (or (or ?v_6 ?v_1) ?v_116)) (or (or ?v_39 ?v_11) ?v_46)) (or (or ?v_7 P21) ?v_56)) (or (or ?v_80 ?v_10) ?v_75)) (or (or ?v_61 ?v_12) ?v_130)) (or (or ?v_76 ?v_29) ?v_19)) (or (or ?v_71 ?v_98) ?v_79)) (or (or ?v_14 ?v_110) ?v_8)) (or (or ?v_40 ?v_78) ?v_16)) (or (or ?v_17 ?v_93) ?v_107)) (or (or ?v_19 P12) ?v_49)) (or (or ?v_20 ?v_90) ?v_15)) (or (or ?v_25 ?v_51) ?v_126)) (or (or ?v_36 ?v_32) ?v_70)) (or (or ?v_41 ?v_24) ?v_25)) (or (or ?v_26 ?v_27) P24)) (or (or P23 ?v_28) ?v_17)) (or (or ?v_52 ?v_29) ?v_30)) (or (or ?v_14 ?v_31) ?v_32)) (or (or ?v_33 P29) ?v_34)) (or (or ?v_96 ?v_6) ?v_91)) (or (or ?v_30 ?v_50) ?v_87)) (or (or ?v_54 ?v_94) ?v_37)) (or (or ?v_38 P9) ?v_39)) (or (or ?v_47 ?v_0) ?v_40)) (or (or ?v_14 P22) ?v_15)) (or (or ?v_69 ?v_41) ?v_65)) (or (or P4 ?v_43) ?v_44)) (or (or ?v_45 P22) P14)) (or (or P10 P6) ?v_46)) (or (or ?v_47 ?v_112) P10)) (or (or ?v_48 P3) P21)) (or (or ?v_49 ?v_106) P23)) (or (or P25 ?v_114) ?v_50)) (or (or ?v_0 ?v_58) ?v_51)) (or (or ?v_108 ?v_142) ?v_89)) (or (or ?v_54 ?v_55) ?v_85)) (or (or ?v_6 ?v_39) ?v_56)) (or (or ?v_57 ?v_30) ?v_77)) (or (or ?v_58 ?v_59) ?v_60)) (or (or ?v_61 ?v_0) P27)) (or (or ?v_140 ?v_12) ?v_50)) (or (or P17 P25) ?v_63)) (or (or ?v_64 ?v_65) ?v_66)) (or (or ?v_67 ?v_146) ?v_49)) (or (or ?v_48 ?v_68) ?v_69)) (or (or ?v_70 ?v_71) ?v_67)) (or (or ?v_72 ?v_11) ?v_73)) (or ?v_158 ?v_86)) (or (or ?v_133 ?v_77) ?v_63)) (or (or ?v_64 ?v_78) ?v_73)) (or (or ?v_55 ?v_82) P5)) (or (or ?v_11 ?v_79) ?v_65)) (or (or ?v_105 ?v_97) ?v_81)) (or (or ?v_80 ?v_101) ?v_57)) (or (or P1 P18) P11)) (or (or ?v_82 ?v_59) ?v_2)) (or (or P3 P25) ?v_83)) (or (or ?v_84 ?v_85) ?v_86)) (or (or P29 P25) P23)) (or (or P7 ?v_34) ?v_7)) (or (or ?v_84 ?v_151) ?v_132)) (or (or ?v_3 ?v_89) ?v_90)) (or (or ?v_39 ?v_79) ?v_25)) (or (or ?v_95 ?v_118) ?v_70)) (or (or ?v_6 P18) ?v_16)) (or (or ?v_46 ?v_19) ?v_92)) (or (or ?v_28 ?v_93) ?v_72)) (or (or ?v_85 ?v_94) ?v_42)) (or (or P22 ?v_17) ?v_95)) (or (or ?v_44 ?v_7) P22)) (or (or ?v_121 P1) ?v_15)) (or (or ?v_97 ?v_77) ?v_88)) (or (or ?v_33 ?v_62) ?v_100)) (or (or ?v_98 ?v_75) ?v_99)) (or (or ?v_100 ?v_143) ?v_101)) (or (or ?v_55 ?v_102) ?v_103)) (or (or ?v_109 ?v_104) ?v_44)) (or (or ?v_93 P7) ?v_86)) (or (or ?v_1 ?v_51) ?v_65)) (or (or ?v_127 ?v_49) ?v_105)) (or (or ?v_113 ?v_106) ?v_75)) (or (or ?v_85 ?v_54) ?v_51)) (or (or P13 ?v_135) ?v_11)) (or (or ?v_68 ?v_108) ?v_26)) (or (or P8 ?v_150) P4)) (or (or ?v_95 P8) ?v_85)) (or (or ?v_14 ?v_115) ?v_44)) (or (or ?v_57 ?v_85) ?v_110)) (or (or ?v_99 ?v_111) ?v_119)) (or (or ?v_55 ?v_97) ?v_18)) (or (or ?v_92 P17) P11)) (or (or ?v_63 ?v_91) ?v_71)) (or (or ?v_112 ?v_86) ?v_113)) (or (or ?v_138 ?v_117) ?v_114)) (or (or ?v_68 P8) ?v_115)) (or (or ?v_104 P6) P18)) (or (or ?v_89 ?v_109) ?v_116)) (or (or ?v_114 P3) ?v_136)) (or (or ?v_117 ?v_95) ?v_118)) (or (or ?v_72 ?v_3) ?v_75)) (or (or ?v_62 P24) ?v_40)) (or (or ?v_147 P26) ?v_119)) (or (or P2 ?v_7) ?v_120)) (or (or ?v_86 ?v_85) ?v_121)) (or (or ?v_122 ?v_62) ?v_73)) (or (or ?v_48 ?v_123) ?v_77)) (or (or ?v_63 P12) P27)) (or (or ?v_46 P6) ?v_34)) (or (or ?v_82 ?v_84) ?v_111)) (or (or ?v_7 ?v_124) ?v_33)) (or (or ?v_14 ?v_26) ?v_125)) (or (or ?v_124 ?v_11) ?v_34)) (or (or P19 ?v_131) ?v_98)) (or (or ?v_12 ?v_24) ?v_90)) (or (or ?v_126 ?v_36) ?v_2)) (or (or ?v_105 P18) ?v_78)) (or (or ?v_11 ?v_20) ?v_15)) (or (or ?v_127 ?v_116) ?v_39)) (or (or ?v_84 ?v_72) ?v_128)) (or (or ?v_10 ?v_129) ?v_87)) (or (or ?v_61 ?v_14) P0)) (or (or ?v_86 ?v_70) ?v_99)) (or (or ?v_92 ?v_30) ?v_108)) (or (or ?v_31 ?v_130) ?v_115)) (or (or ?v_117 ?v_86) ?v_102)) (or (or ?v_0 ?v_126) P19)) (or (or ?v_121 ?v_31) P25)) (or (or ?v_102 ?v_116) ?v_131)) (or (or ?v_67 ?v_16) ?v_51)) (or (or ?v_104 ?v_130) ?v_43)) (or (or ?v_11 P4) P10)) (or (or P5 ?v_99) P2)) (or (or ?v_57 ?v_132) ?v_130)) (or (or ?v_31 ?v_84) P8)) (or (or ?v_87 ?v_50) ?v_133)) (or (or ?v_73 ?v_91) ?v_134)) (or (or ?v_110 P26) ?v_73)) (or (or P20 ?v_15) ?v_135)) (or (or ?v_77 P13) ?v_106)) (or (or ?v_48 P9) ?v_71)) (or (or P3 ?v_68) ?v_94)) (or (or ?v_123 P23) ?v_144)) (or (or ?v_120 ?v_65) ?v_97)) (or (or ?v_137 P12) ?v_136)) (or (or ?v_93 ?v_18) ?v_24)) (or (or ?v_39 ?v_83) P25)) (or (or ?v_34 ?v_67) ?v_29)) (or (or P10 ?v_96) ?v_137)) (or (or P14 ?v_59) ?v_18)) (or (or ?v_115 ?v_9) ?v_12)) (or (or ?v_86 ?v_136) ?v_45)) (or (or ?v_43 ?v_118) ?v_115)) (or (or ?v_131 ?v_116) P25)) (or (or ?v_43 ?v_36) ?v_77)) (or (or P18 ?v_115) ?v_117)) (or (or P28 ?v_83) ?v_97)) (or (or ?v_9 ?v_85) ?v_30)) (or (or ?v_138 ?v_139) ?v_40)) (or (or ?v_104 P16) ?v_140)) (or (or P6 ?v_1) ?v_49)) (or (or ?v_79 ?v_71) ?v_97)) (or (or ?v_103 P19) ?v_129)) (or (or P6 P18) P24)) (or (or ?v_44 ?v_41) ?v_60)) (or (or ?v_134 ?v_119) P7)) (or (or P5 ?v_61) ?v_112)) (or (or ?v_93 ?v_128) ?v_125)) (or (or ?v_130 ?v_138) ?v_141)) (or (or ?v_99 ?v_44) ?v_48)) (or (or P12 ?v_115) ?v_105)) (or (or P4 ?v_141) ?v_86)) (or (or ?v_86 ?v_126) ?v_87)) (or (or ?v_100 ?v_75) ?v_117)) (or (or P19 P11) ?v_11)) (or (or ?v_117 ?v_71) ?v_142)) (or (or P1 ?v_62) ?v_143)) (or (or ?v_89 ?v_144) ?v_121)) (or (or ?v_9 ?v_6) P19)) (or (or ?v_73 ?v_74) P26)) (or (or ?v_156 ?v_92) P9)) (or (or ?v_143 ?v_127) ?v_109)) (or (or P2 ?v_51) ?v_106)) (or (or ?v_19 ?v_134) ?v_102)) (or (or P22 P6) ?v_103)) (or (or ?v_102 ?v_62) ?v_34)) (or (or ?v_115 ?v_30) ?v_145)) (or (or ?v_44 P9) ?v_78)) (or (or ?v_146 ?v_11) ?v_56)) (or (or ?v_77 ?v_15) ?v_136)) (or (or P15 ?v_18) P19)) (or (or ?v_65 ?v_77) ?v_95)) (or (or ?v_139 ?v_157) ?v_83)) (or (or ?v_44 P7) ?v_141)) (or (or P15 ?v_146) ?v_113)) (or (or ?v_113 ?v_58) ?v_32)) (or (or P20 P9) ?v_18)) (or (or ?v_88 ?v_27) ?v_146)) (or (or P2 ?v_126) P26)) (or (or ?v_147 ?v_116) ?v_148)) (or (or ?v_1 ?v_124) ?v_50)) (or (or ?v_136 P6) ?v_120)) (or (or ?v_112 P29) ?v_97)) (or (or ?v_141 ?v_39) ?v_8)) (or (or ?v_93 ?v_149) ?v_47)) (or (or P0 P12) P22)) (or (or ?v_136 ?v_115) ?v_55)) (or (or ?v_79 ?v_45) P7)) (or (or ?v_84 ?v_126) ?v_112)) (or (or ?v_107 ?v_115) ?v_43)) (or (or ?v_142 ?v_93) ?v_96)) (or (or P21 ?v_147) P27)) (or (or ?v_137 ?v_150) ?v_114)) (or (or ?v_131 ?v_141) ?v_150)) (or (or P19 ?v_134) ?v_68)) (or (or ?v_133 P27) ?v_138)) (or (or ?v_10 ?v_10) ?v_5)) (or (or ?v_78 ?v_144) P16)) (or (or ?v_97 ?v_37) ?v_72)) (or (or ?v_140 P21) ?v_111)) (or (or P25 ?v_74) ?v_103)) (or (or ?v_89 ?v_137) ?v_142)) (or (or ?v_123 ?v_110) ?v_88)) (or (or ?v_110 ?v_27) ?v_30)) (or (or ?v_102 P7) ?v_123)) (or (or ?v_151 P16) ?v_137)) (or (or ?v_135 ?v_64) ?v_99)) (or (or ?v_42 ?v_2) ?v_105)) (or (or P4 ?v_100) P28)) (or (or ?v_33 ?v_39) ?v_101)) (or (or ?v_52 ?v_74) ?v_28)) (or (or ?v_31 P9) ?v_5)) (or (or ?v_43 ?v_94) ?v_127)) (or (or ?v_117 ?v_101) P0)) (or (or ?v_8 P22) ?v_70)) (or (or ?v_3 ?v_67) ?v_96)) (or (or P20 P4) P17)) (or (or ?v_39 ?v_17) P2)) (or (or ?v_17 ?v_110) P8)) (or (or ?v_33 ?v_142) ?v_127)) (or (or ?v_17 ?v_116) P17)) (or (or ?v_152 ?v_145) ?v_100)) (or (or ?v_153 ?v_123) P22)) (or (or ?v_108 ?v_67) ?v_51)) (or (or ?v_41 ?v_49) ?v_6)) (or (or ?v_112 P8) ?v_120)) (or (or ?v_124 P4) ?v_116)) (or (or ?v_109 ?v_77) ?v_151)) (or (or ?v_101 P19) ?v_7)) (or (or ?v_76 ?v_26) ?v_86)) (or (or ?v_127 ?v_77) ?v_125)) (or (or ?v_78 ?v_8) ?v_54)) (or (or ?v_41 ?v_59) ?v_18)) (or (or ?v_138 ?v_45) ?v_70)) (or (or ?v_39 ?v_43) P25)) (or (or ?v_73 ?v_64) ?v_101)) (or (or ?v_19 ?v_91) ?v_48)) (or (or ?v_7 ?v_86) P4)) (or (or ?v_144 ?v_118) ?v_48)) (or (or ?v_71 ?v_91) ?v_40)) (or (or ?v_142 ?v_1) P1)) (or (or ?v_50 ?v_143) ?v_81)) (or (or ?v_7 ?v_119) ?v_56)) (or (or ?v_57 ?v_46) ?v_103)) (or (or ?v_8 P16) P27)) (or (or P15 ?v_107) ?v_48)) (or (or ?v_143 ?v_83) ?v_9)) (or (or ?v_42 ?v_127) P29)) (or (or ?v_82 P18) ?v_100)) (or (or P23 ?v_60) ?v_45)) (or (or ?v_130 ?v_136) P7)) (or (or ?v_143 ?v_47) ?v_101)) (or (or ?v_146 ?v_48) ?v_43)) (or (or P9 ?v_107) ?v_77)) (or (or P12 ?v_117) ?v_136)) (or (or ?v_84 P20) P14)) (or (or ?v_123 ?v_122) ?v_115)) (or (or P25 ?v_14) ?v_11)) (or (or ?v_43 ?v_99) ?v_11)) (or (or ?v_67 ?v_110) ?v_127)) (or (or ?v_20 P7) ?v_46)) (or (or ?v_9 ?v_119) ?v_7)) (or (or P16 ?v_1) ?v_140)) (or (or ?v_139 ?v_124) ?v_17)) (or (or ?v_69 ?v_120) ?v_34)) (or ?v_154 P18)) (or (or ?v_47 ?v_135) ?v_51)) (or (or ?v_63 ?v_141) ?v_47)) (or (or ?v_114 ?v_100) ?v_117)) (or (or ?v_28 ?v_1) ?v_71)) (or (or ?v_120 ?v_67) ?v_143)) (or (or ?v_47 ?v_150) ?v_10)) (or (or P0 P16) ?v_73)) (or (or ?v_26 ?v_33) ?v_28)) (or (or ?v_132 ?v_99) ?v_137)) (or (or ?v_41 ?v_106) ?v_5)) (or (or ?v_58 ?v_16) ?v_101)) (or (or ?v_48 ?v_18) ?v_3)) (or (or ?v_29 ?v_80) ?v_33)) (or (or ?v_152 ?v_137) P27)) (or (or P16 ?v_155) ?v_62)) (or (or ?v_79 ?v_16) ?v_75)) (or (or ?v_51 P6) ?v_84)) (or (or ?v_106 ?v_42) ?v_31)) (or (or ?v_136 P18) ?v_24)) (or (or ?v_150 ?v_96) ?v_74)) (or (or ?v_132 ?v_1) ?v_7)) (or (or ?v_29 ?v_64) ?v_81)) (or (or P6 ?v_153) ?v_19)) (or (or ?v_110 ?v_82) ?v_115)) (or (or ?v_0 ?v_111) ?v_119)) (or (or ?v_19 ?v_39) ?v_75)) (or (or ?v_41 ?v_135) ?v_127)) (or (or ?v_150 ?v_134) ?v_145)) (or (or ?v_85 ?v_155) ?v_32)) (or (or ?v_132 ?v_114) ?v_134)) (or (or P20 ?v_131) P4)) (or (or P29 P5) ?v_12)) (or (or ?v_96 ?v_72) ?v_122)) (or (or P1 ?v_27) ?v_72)) (or (or ?v_134 ?v_102) ?v_137)) (or (or P11 ?v_148) ?v_43)) (or (or ?v_51 ?v_124) ?v_24)) (or (or ?v_26 ?v_37) ?v_93)) (or (or ?v_146 ?v_45) ?v_99)) (or (or ?v_14 ?v_132) ?v_64)) (or ?v_159 ?v_128)) (or (or ?v_8 ?v_38) P1)) (or (or ?v_8 P26) ?v_84)) (or (or P16 ?v_142) ?v_50)) (or (or ?v_49 ?v_37) ?v_68)) (or (or P18 P5) ?v_29)) (or (or P5 ?v_20) ?v_84)) (or (or ?v_111 P20) ?v_64)) (or (or P28 ?v_76) P18)) (or (or ?v_99 ?v_38) ?v_88)) (or (or ?v_144 ?v_127) ?v_47)) (or (or ?v_50 ?v_11) ?v_73)) (or (or ?v_59 ?v_86) ?v_63)) (or (or ?v_129 ?v_107) P20)) (or (or ?v_50 ?v_132) ?v_144)) (or (or ?v_7 ?v_118) ?v_70)) (or (or ?v_148 ?v_81) ?v_79)) (or (or ?v_14 ?v_58) ?v_86)) (or (or ?v_144 ?v_101) ?v_126)) (or (or ?v_151 ?v_91) ?v_31)) (or (or ?v_138 ?v_102) ?v_0)) (or (or ?v_31 P2) ?v_44)) (or (or ?v_52 ?v_115) P11)) (or (or ?v_78 ?v_39) P16)) (or (or ?v_101 ?v_124) P1)) (or (or ?v_19 ?v_145) P25)) (or (or ?v_57 ?v_63) ?v_66)) (or (or ?v_82 ?v_20) ?v_143)) (or (or P21 ?v_15) ?v_69)) (or (or ?v_49 ?v_76) ?v_15)) (or (or ?v_110 ?v_106) ?v_25)) (or (or P18 ?v_3) P14)) (or (or ?v_128 ?v_122) ?v_68)) (or (or ?v_145 ?v_67) ?v_75)) (or (or ?v_7 ?v_156) ?v_78)) (or (or ?v_83 ?v_19) ?v_126)) (or (or ?v_145 ?v_52) ?v_157)) (or ?v_158 P26)) (or (or ?v_77 ?v_79) P0)) (or (or ?v_7 ?v_99) ?v_136)) (or (or ?v_144 ?v_25) ?v_92)) (or (or P22 ?v_32) ?v_91)) (or (or ?v_33 ?v_14) ?v_28)) (or (or ?v_94 P8) ?v_110)) (or (or ?v_87 P17) ?v_107)) (or (or ?v_120 P3) P12)) (or (or ?v_132 ?v_94) P27)) (or (or ?v_71 ?v_69) ?v_120)) (or (or ?v_52 ?v_98) ?v_116)) (or (or ?v_49 P17) ?v_155)) (or (or ?v_37 ?v_105) ?v_32)) (or (or ?v_73 ?v_142) ?v_144)) (or (or ?v_54 ?v_33) ?v_146)) (or (or P17 ?v_52) ?v_68)) (or (or ?v_104 ?v_34) ?v_75)) (or (or ?v_65 ?v_99) ?v_143)) (or (or ?v_59 ?v_63) ?v_151)) (or (or ?v_39 ?v_46) ?v_61)) (or (or ?v_12 ?v_107) ?v_140)) (or (or P0 P24) ?v_39)) (or (or P15 ?v_64) ?v_16)) (or (or ?v_146 ?v_74) ?v_111)) (or (or ?v_141 ?v_58) ?v_124)) (or (or ?v_94 ?v_78) ?v_83)) (or (or P9 ?v_98) ?v_79)) (or (or ?v_141 ?v_89) P14)) (or (or ?v_84 P2) ?v_150)) (or (or ?v_133 ?v_63) P7)) (or (or ?v_66 ?v_153) ?v_55)) (or (or P14 ?v_60) ?v_45)) (or (or ?v_129 ?v_133) ?v_67)) (or (or P17 ?v_28) ?v_1)) (or (or P26 ?v_49) ?v_132)) (or (or ?v_10 ?v_109) P7)) (or (or ?v_89 ?v_115) ?v_67)) (or (or ?v_87 ?v_148) ?v_1)) (or (or P28 P23) P29)) (or (or ?v_46 ?v_134) ?v_110)) (or (or ?v_69 ?v_91) ?v_124)) (or (or ?v_37 ?v_138) ?v_111)) (or (or ?v_30 ?v_33) ?v_124)) (or (or ?v_43 ?v_120) ?v_88)) (or (or ?v_146 ?v_56) ?v_52)) (or (or ?v_88 ?v_136) ?v_45)) (or (or ?v_98 ?v_41) P27)) (or (or ?v_135 P20) ?v_50)) (or (or ?v_17 ?v_34) ?v_18)) (or (or P10 ?v_91) ?v_14)) (or (or ?v_33 ?v_71) ?v_74)) (or (or ?v_90 ?v_8) ?v_140)) (or (or P2 P28) ?v_123)) (or (or ?v_157 ?v_65) P6)) (or (or ?v_122 ?v_134) ?v_141)) (or (or P23 ?v_153) ?v_42)) (or (or ?v_80 ?v_109) ?v_139)) (or (or ?v_91 ?v_115) ?v_147)) (or (or ?v_157 ?v_18) ?v_41)) (or (or P23 ?v_3) ?v_28)) (or (or ?v_92 ?v_9) ?v_42)) (or (or P2 ?v_103) ?v_55)) (or (or P9 P16) ?v_61)) (or (or ?v_102 ?v_108) P9)) (or (or ?v_94 ?v_50) ?v_34)) (or (or P27 ?v_114) ?v_82)) (or (or ?v_45 ?v_93) P7)) (or ?v_159 ?v_43)) (or (or ?v_16 ?v_140) ?v_157)) (or (or ?v_8 P29) ?v_28))))))))))))))))))))))))))))
(check-sat)
(exit)
